\ Model Linearization Heuristic_copy
\ LP format - for model browsing. Use MPS format to capture full model detail.
Maximize
 
Subject To
 R4482: u[5] - 1.1 u[15] <= -0
Bounds
 u[5] >= 0.95
 -infinity <= u[15] <= 0.693866016853231
End
